# Objective value = 4.3470599999999995e+03
I_0_0 1301
I_0_1 1849
I_0_2 1601
I_0_3 1699
I_1_0 19
I_1_1 0
I_1_2 19
I_1_3 0
I_2_0 69
I_2_1 0
I_2_2 69
I_2_3 0
I_3_0 198
I_3_1 99
I_3_2 0
I_3_3 1.9800000000000003e+02
I_4_0 102
I_4_1 51
I_4_2 0
I_4_3 102
I_5_0 51
I_5_1 0
I_5_2 51
I_5_3 0
I_6_0 26
I_6_1 0
I_6_2 26
I_6_3 0
I_7_0 110
I_7_1 55
I_7_2 1.1000000000000003e+02
I_7_3 5.5000000000000028e+01
I_8_0 43
I_8_1 0
I_8_2 43
I_8_3 0
I_9_0 44
I_9_1 0
I_9_2 44
I_9_3 0
I_10_0 91
I_10_1 0
I_10_2 91
I_10_3 0
q_1_0 0
q_1_1 38
q_1_2 0
q_2_0 0
q_2_1 138
q_2_2 0
q_3_0 0
q_3_1 0
q_3_2 297
q_4_0 0
q_4_1 0
q_4_2 153
q_5_0 0
q_5_1 102
q_5_2 0
q_6_0 0
q_6_1 52
q_6_2 0
q_7_0 0
q_7_1 1.1000000000000003e+02
q_7_2 0
q_8_0 0
q_8_1 86
q_8_2 0
q_9_0 0
q_9_1 88
q_9_2 0
q_10_0 0
q_10_1 182
q_10_2 0
y_0_0 0
y_0_1 1
y_0_2 1
y_1_0 0
y_1_1 1
y_1_2 0
y_2_0 0
y_2_1 1
y_2_2 0
y_3_0 0
y_3_1 0
y_3_2 1
y_4_0 0
y_4_1 0
y_4_2 1
y_5_0 0
y_5_1 1
y_5_2 0
y_6_0 0
y_6_1 1
y_6_2 0
y_7_0 0
y_7_1 1
y_7_2 0
y_8_0 0
y_8_1 1
y_8_2 0
y_9_0 0
y_9_1 1
y_9_2 0
y_10_0 0
y_10_1 1
y_10_2 0
x_0_1_0 0
x_0_1_1 1
x_0_1_2 0
x_0_2_0 0
x_0_2_1 1
x_0_2_2 0
x_0_3_0 0
x_0_3_1 0
x_0_3_2 1
x_0_4_0 0
x_0_4_1 0
x_0_4_2 1
x_0_5_0 0
x_0_5_1 0
x_0_5_2 0
x_0_6_0 0
x_0_6_1 0
x_0_6_2 0
x_0_7_0 0
x_0_7_1 0
x_0_7_2 0
x_0_8_0 0
x_0_8_1 0
x_0_8_2 0
x_0_9_0 0
x_0_9_1 0
x_0_9_2 0
x_0_10_0 0
x_0_10_1 0
x_0_10_2 0
x_1_2_0 0
x_1_2_1 0
x_1_2_2 0
x_1_3_0 0
x_1_3_1 0
x_1_3_2 0
x_1_4_0 0
x_1_4_1 0
x_1_4_2 0
x_1_5_0 0
x_1_5_1 1
x_1_5_2 0
x_1_6_0 0
x_1_6_1 0
x_1_6_2 0
x_1_7_0 0
x_1_7_1 0
x_1_7_2 0
x_1_8_0 0
x_1_8_1 0
x_1_8_2 0
x_1_9_0 0
x_1_9_1 0
x_1_9_2 0
x_1_10_0 0
x_1_10_1 0
x_1_10_2 0
x_2_3_0 0
x_2_3_1 0
x_2_3_2 0
x_2_4_0 0
x_2_4_1 0
x_2_4_2 0
x_2_5_0 0
x_2_5_1 0
x_2_5_2 0
x_2_6_0 0
x_2_6_1 0
x_2_6_2 0
x_2_7_0 0
x_2_7_1 0
x_2_7_2 0
x_2_8_0 0
x_2_8_1 0
x_2_8_2 0
x_2_9_0 0
x_2_9_1 0
x_2_9_2 0
x_2_10_0 0
x_2_10_1 1
x_2_10_2 0
x_3_4_0 0
x_3_4_1 0
x_3_4_2 1
x_3_5_0 0
x_3_5_1 0
x_3_5_2 0
x_3_6_0 0
x_3_6_1 0
x_3_6_2 0
x_3_7_0 0
x_3_7_1 0
x_3_7_2 0
x_3_8_0 0
x_3_8_1 0
x_3_8_2 0
x_3_9_0 0
x_3_9_1 0
x_3_9_2 0
x_3_10_0 0
x_3_10_1 0
x_3_10_2 0
x_4_5_0 0
x_4_5_1 0
x_4_5_2 0
x_4_6_0 0
x_4_6_1 0
x_4_6_2 0
x_4_7_0 0
x_4_7_1 0
x_4_7_2 0
x_4_8_0 0
x_4_8_1 0
x_4_8_2 0
x_4_9_0 0
x_4_9_1 0
x_4_9_2 0
x_4_10_0 0
x_4_10_1 0
x_4_10_2 0
x_5_6_0 0
x_5_6_1 0
x_5_6_2 0
x_5_7_0 0
x_5_7_1 0
x_5_7_2 0
x_5_8_0 0
x_5_8_1 0
x_5_8_2 0
x_5_9_0 0
x_5_9_1 1
x_5_9_2 0
x_5_10_0 0
x_5_10_1 0
x_5_10_2 0
x_6_7_0 0
x_6_7_1 0
x_6_7_2 0
x_6_8_0 0
x_6_8_1 1
x_6_8_2 0
x_6_9_0 0
x_6_9_1 0
x_6_9_2 0
x_6_10_0 0
x_6_10_1 1
x_6_10_2 0
x_7_8_0 0
x_7_8_1 1
x_7_8_2 0
x_7_9_0 0
x_7_9_1 1
x_7_9_2 0
x_7_10_0 0
x_7_10_1 0
x_7_10_2 0
x_8_9_0 0
x_8_9_1 0
x_8_9_2 0
x_8_10_0 0
x_8_10_1 0
x_8_10_2 0
x_9_10_0 0
x_9_10_1 0
x_9_10_2 0
